Argumentos: 
./solver.release -i 24 -t 86400 -a 7 -h 86400 -w Testes/R2-i24 -m R2_modeloCom2345.mod -o R2_modeloCom2345.mod 
Seed: 1623016528
hidden-TXT/Sc-n110w4.txt
hidden-TXT/H0-n110w4-1.txt
hidden-TXT/WD-n110w4-0.txt hidden-TXT/WD-n110w4-5.txt hidden-TXT/WD-n110w4-8.txt hidden-TXT/WD-n110w4-8.txt 
Reading model section from R2_modeloCom2345.mod...
367 lines were read
Reading data section from Testes/R2-i24/24.dat...
19773 lines were read
Generating obj...
Generating H1turnoDia...
Generating H2coberturaMinima...
Generating H3AsucessaoTurnos...
Generating H3BsucessaoTurnos...
Generating H4qualificacao...
Generating S1coberturaOtima...
Generating S2d...
Generating S2dHist...
Generating S2b...
Generating S2bHist...
Generating auxS5...
Generating S6a...
Generating S6b...
Generating auxS7...
Generating S7...
Model has been successfully generated
Writing problem data to `Testes/R2-i24/24.lp'...
513900 lines were written
CPX0000  Tried aggregator 2 times.
CPX0000  MIP Presolve eliminated 21923 rows and 78855 columns.
CPX0000  MIP Presolve modified 5930 coefficients.
CPX0000  Aggregator did 13 substitutions.
CPX0000  Reduced MIP has 23431 rows, 33959 columns, and 299401 nonzeros.
CPX0000  Reduced MIP has 33328 binaries, 631 generals, 0 SOSs, and 0 indicators.
CPX0000  Presolve time = 0.50 sec. (330.62 ticks)
CPX0000  Found incumbent of value 638025.000000 after 1.15 sec. (843.85 ticks)
[1m[30m[ZEN] [0m00:00:01 [1m[34m 638025.00[1m[32m  100.00%
[0mCPX0000  Probing time = 0.03 sec. (11.11 ticks)
CPX0000  Tried aggregator 1 time.
CPX0000  Reduced MIP has 23431 rows, 33959 columns, and 299401 nonzeros.
CPX0000  Reduced MIP has 33328 binaries, 631 generals, 0 SOSs, and 0 indicators.
CPX0000  Presolve time = 0.16 sec. (109.73 ticks)
CPX0000  Probing time = 0.03 sec. (10.50 ticks)
CPX0000  Clique table members: 14924.
CPX0000  MIP emphasis: balance optimality and feasibility.
CPX0000  MIP search method: dynamic search.
CPX0000  Parallel mode: none, using 1 thread.
CPX0000  Root relaxation solution time = 3.13 sec. (1567.14 ticks)
CPX0000
CPX0000          Nodes                                         Cuts/
CPX0000     Node  Left     Objective  IInf  Best Integer    Best Bound    ItCnt     Gap
CPX0000
CPX0000  *     0+    0                       638025.0000        0.0000     8434  100.00%
CPX0000        0     0      720.0000   932   638025.0000      720.0000     8434   99.89%
CPX0000        0     0      830.0000  1411   638025.0000    Cuts: 1259    13850   99.87%
CPX0000        0     0      926.9524  1606   638025.0000     Cuts: 832    18539   99.85%
CPX0000        0     0      929.3333  1669   638025.0000     Cuts: 513    22241   99.85%
CPX0000  *     0+    0                       162270.0000      929.3333    22241   99.43%
[1m[30m[ZEN] [0m00:00:27 [1m[34m 162270.00[1m[32m   99.43%
[0mCPX0000        0     0      929.3333  1687   162270.0000     Cuts: 442    25881   99.43%
CPX0000        0     0      929.3333  1101   162270.0000     Cuts: 132    27033   99.43%
CPX0000        0     0      929.3333  1324   162270.0000     Cuts: 245    28664   99.43%
CPX0000  *     0+    0                         3340.0000      929.3333    28664   72.18%
CPX0000  *     0+    0                         1780.0000      929.3333    28664   47.79%
CPX0000  *     0+    0                         1450.0000      929.3333    28664   35.91%
[1m[30m[ZEN] [0m00:00:44 [1m[34m   1450.00[1m[32m   35.91%
[0mCPX0000        0     2      929.3333   862     1450.0000      931.3333    28664   35.77%
CPX0000  Elapsed time = 44.90 sec. (22307.49 ticks, tree = 0.00 MB
CPX0000        1     3      939.3333   932     1450.0000      932.6667    30318   35.68%
CPX0000        2     4      932.6667   974     1450.0000      934.6667    31131   35.54%
CPX0000        4     6      937.2121   860     1450.0000      937.2121    34472   35.36%
CPX0000        5     7      950.8788   796     1450.0000      937.2121    39926   35.36%
CPX0000        6     8      960.8788   810     1450.0000      937.2121    43696   35.36%
CPX0000        7     9      960.8788   921     1450.0000      937.2121    46375   35.36%
CPX0000        8    10      965.8788   854     1450.0000      937.2121    48121   35.36%
CPX0000        9    11      969.2121   940     1450.0000      937.2121    50240   35.36%
CPX0000       10    12      980.8788   848     1450.0000      937.2121    50428   35.36%
CPX0000       12    14      985.8788   924     1450.0000      937.2121    52177   35.36%
CPX0000  Elapsed time = 60.33 sec. (31739.78 ticks, tree = 0.71 MB
CPX0000       14    16      990.8788   767     1450.0000      937.2121    57109   35.36%
CPX0000       17    19     1002.5455   816     1450.0000      937.2121    60671   35.36%
CPX0000       19    21     1004.5455   766     1450.0000      937.2121    63142   35.36%
CPX0000       22    24     1012.8788   683     1450.0000      937.2121    64866   35.36%
CPX0000       32    34     1030.0000   444     1450.0000      937.2121    66649   35.36%
CPX0000       60    62     1043.3333   301     1450.0000      937.2121    68998   35.36%
CPX0000       90    92     1090.0000    59     1450.0000      937.2121    71947   35.36%
CPX0000      130   132     1120.0000    85     1450.0000      937.2121    73993   35.36%
CPX0000      178   180     1110.0000    34     1450.0000      937.2121    76256   35.36%
CPX0000      226   228     1110.0000   118     1450.0000      937.2121    77816   35.36%
CPX0000  Elapsed time = 82.08 sec. (44203.72 ticks, tree = 63.90 MB
CPX0000      260   262     1120.0000    20     1450.0000      937.2121    79475   35.36%
CPX0000      308   310     1130.0000    87     1450.0000      937.2121    81998   35.36%
CPX0000  *   330+  330                         1440.0000      937.2121    83476   34.92%
[1m[30m[ZEN] [0m00:01:26 [1m[34m   1440.00[1m[32m   34.92%
[0mCPX0000  *   340+  340                         1370.0000      937.2121    83779   31.59%
[1m[30m[ZEN] [0m00:01:26 [1m[34m   1370.00[1m[32m   31.59%
[0mCPX0000  *   350+  350                         1340.0000      937.2121    84542   30.06%
CPX0000      350   352     1130.0000    68     1340.0000      937.2121    84542   30.06%
[1m[30m[ZEN] [0m00:01:27 [1m[34m   1340.00[1m[32m   30.06%
[0mCPX0000  *   370+  370                         1320.0000      937.2121    86264   29.00%
CPX0000  *   370+  370                         1270.0000      937.2121    86264   26.20%
CPX0000      370   372     1130.0000    44     1270.0000      937.2121    86264   26.20%
[1m[30m[ZEN] [0m00:01:29 [1m[34m   1270.00[1m[32m   26.20%
[0mCPX0000      390   392     1130.0000   135     1270.0000      937.2121    88860   26.20%
CPX0000  *   400+  400                         1240.0000      937.2121    89769   24.42%
[1m[30m[ZEN] [0m00:01:31 [1m[34m   1240.00[1m[32m   24.42%
[0mCPX0000      415   417     1150.0000    18     1240.0000      937.2121    92345   24.42%
CPX0000  *   430   426      integral     0     1160.0000      937.2121    93333   19.21%
[1m[30m[ZEN] [0m00:01:33 [1m[34m   1160.00[1m[32m   19.21%
[0mCPX0000      439   435      960.8788   654     1160.0000      939.3333    95495   19.02%
CPX0000      468   464     1015.0000   331     1160.0000      939.3333    98061   19.02%
CPX0000      500   496     1041.6667   218     1160.0000      939.3333   101656   19.02%
CPX0000  Elapsed time = 98.99 sec. (53603.96 ticks, tree = 144.65 MB
CPX0000  *   530+  513                         1150.0000      939.3333   104496   18.32%
[1m[30m[ZEN] [0m00:01:40 [1m[34m   1150.00[1m[32m   18.32%
[0mCPX0000      533   518     1050.0000   103     1150.0000      939.3333   104547   18.32%
CPX0000      576   561     1070.0000    43     1150.0000      939.3333   107178   18.32%
CPX0000      632   617     1070.0000   144     1150.0000      939.3333   109285   18.32%
CPX0000  *   640+  416                         1080.0000     1001.2500   126085    7.29%
CPX0000  *   640+  277                         1070.0000     1019.4853   140635    4.72%
CPX0000  *   640+  184                         1050.0000     1019.4853   140635    2.91%
[1m[30m[ZEN] [0m00:02:29 [1m[34m   1050.00[1m[32m    2.91%
[0mCPX0000      640   185     1019.4853   206     1050.0000     1019.6358   140635    2.89%
CPX0000      643   187     1020.0000   132     1050.0000     1020.0000   143410    2.86%
CPX0000      647   190     1033.2692   247     1050.0000     1020.0000   149440    2.86%
CPX0000      666   182     1040.0000    16     1050.0000     1020.0000   151311    2.86%
CPX0000      697   200     1040.0000    72     1050.0000     1020.0000   152699    2.86%
CPX0000  *   733     9      integral     0     1040.0000     1020.0000   154512    1.92%
[1m[30m[ZEN] [0m00:02:37 [1m[34m   1040.00[1m[32m    1.92%
[0mCPX0000      750    22     1020.0000     9     1040.0000     1020.0000   156116    1.92%
CPX0000  Elapsed time = 159.06 sec. (90352.23 ticks, tree = 4.31 MB
CPX0000      789    61     1020.0000     2     1040.0000     1020.0000   158133    1.92%
CPX0000  *   817     0      integral     0     1020.0000     1020.0000   159541    0.00%
[1m[30m[ZEN] [0m00:02:41 [1m[34m   1020.00[1m[32m    0.00%
[0mCPX0000
CPX0000  GUB cover cuts applied:  490
CPX0000  Clique cuts applied:  812
CPX0000  Cover cuts applied:  92
CPX0000  Mixed integer rounding cuts applied:  176
CPX0000  Zero-half cuts applied:  367
CPX0000  Lift and project cuts applied:  4
CPX0000  Gomory fractional cuts applied:  85
CPX0000
CPX0000  Root node processing (before b&c):
CPX0000    Real time             =   44.84 sec. (22257.88 ticks)
CPX0000  Sequential b&c:
CPX0000    Real time             =  116.85 sec. (69800.96 ticks)
CPX0000                            ------------
CPX0000  Total (root+branch&cut) =  161.69 sec. (92058.84 ticks)
H2 understaffing: 0
H3 shiftTypeSuccessions: 0
S1 optimalCoverage: 0
S2a consecutiveShift: 18285 = (1219,0 )
S2b consecutiveWorkingDays: 24720 = ( 824,0 )
S3 consecutiveDaysOff: 16320 = ( 544,0 )
S4 preferences: 110
S5 completeWeekend: 0
S6 totalAssignments: 880
S7 totalWorkingWeekeends: 30
 

Cost Solution: 60345

       |M|T|W|T|F|S|S| |M|T|W|T|F|S|S| |M|T|W|T|F|S|S| |M|T|W|T|F|S|S|
------------------------------------------------------------------------
HN_0   |E|-|D|L|-|-|-| |L|N|-|D|-|E|E| |N|-|L|-|E|-|-| |E|-|D|D|E|-|-|
HN_1   |-|E|-|-|-|-|-| |-|D|-|-|-|-|-| |E|-|-|-|E|E|-| |-|D|-|-|-|-|-|
HN_2   |-|N|-|-|-|-|E| |-|-|-|D|-|-|-| |L|-|-|-|-|-|-| |-|D|-|-|-|-|-|
HN_3   |N|-|E|D|E|N|N| |-|E|L|L|L|-|-| |E|D|D|D|E|-|-| |L|L|L|N|-|E|D|
HN_4   |N|N|-|-|-|N|N| |N|-|-|E|-|-|-| |L|-|-|D|-|-|-| |L|-|L|-|D|-|-|
HN_5   |D|E|N|-|-|E|D| |-|D|D|-|L|-|-| |-|-|-|-|N|-|-| |-|L|-|E|-|-|-|
HN_6   |L|L|-|E|-|-|-| |L|L|-|D|-|D|L| |L|L|N|-|-|-|-| |E|D|N|-|E|D|E|
HN_7   |N|-|-|-|D|-|-| |-|D|L|-|E|-|-| |-|-|D|D|D|E|L| |-|-|D|E|D|D|L|
HN_8   |E|E|D|E|-|-|-| |N|-|E|-|L|L|L| |-|E|-|-|N|-|-| |D|D|E|-|L|-|-|
HN_9   |-|D|D|D|D|-|-| |-|N|N|-|-|E|D| |-|-|-|E|L|-|-| |-|-|L|N|N|-|-|
HN_10  |-|D|L|-|L|L|L| |-|-|-|-|N|-|-| |D|D|L|L|-|L|L| |N|-|-|N|N|-|-|
HN_11  |-|-|-|-|L|-|-| |-|-|-|-|N|-|-| |-|-|E|-|-|-|-| |-|E|-|E|-|N|-|
HN_12  |-|E|-|E|-|E|D| |N|-|-|-|D|-|-| |-|-|-|E|-|-|-| |E|E|-|D|N|-|-|
HN_13  |-|-|E|-|-|-|-| |D|E|E|E|-|N|N| |-|L|L|L|-|D|N| |-|N|-|D|N|-|-|
HN_14  |-|-|E|L|N|-|-| |E|D|L|-|-|-|-| |-|L|-|-|N|-|-| |D|-|E|-|E|-|-|
HN_15  |L|N|-|N|-|-|-| |-|L|-|N|-|N|N| |-|D|L|N|-|-|-| |N|-|-|L|L|L|L|
HN_16  |E|L|L|N|N|-|-| |D|E|N|N|N|-|-| |L|L|L|L|-|D|N| |N|N|N|-|L|L|L|
HN_17  |D|L|N|-|L|-|-| |D|N|-|-|E|-|-| |-|-|-|-|D|E|D| |-|-|-|L|-|-|-|
HN_18  |N|-|E|E|E|E|D| |-|D|E|L|L|-|-| |E|E|E|E|L|-|-| |E|D|E|D|-|E|N|
HN_19  |N|-|-|L|-|-|-| |D|D|N|N|-|L|N| |N|N|-|N|N|-|-| |D|-|-|L|N|-|-|
NU_20  |-|-|D|D|N|-|-| |-|-|-|L|N|-|-| |L|-|N|-|D|L|L| |N|-|-|L|-|-|-|
NU_21  |L|-|E|E|D|-|-| |L|N|N|N|N|-|-| |N|N|-|D|D|D|E| |E|-|D|D|E|E|D|
NU_22  |E|D|L|N|N|-|-| |D|E|D|N|N|-|-| |N|N|N|N|-|E|E| |N|-|D|D|E|E|L|
NU_23  |L|-|L|-|-|-|-| |-|-|D|E|D|-|-| |E|E|E|-|-|-|-| |L|L|L|-|-|-|-|
NU_24  |-|-|-|L|-|-|-| |-|D|N|-|-|-|-| |D|D|D|E|L|-|-| |-|D|D|E|-|-|-|
NU_25  |-|L|-|-|E|-|-| |E|L|-|D|N|-|-| |-|-|-|L|N|-|-| |L|-|L|-|D|-|-|
NU_26  |D|-|-|N|-|-|-| |-|-|-|E|-|-|-| |-|N|-|-|N|N|-| |E|-|N|-|E|-|-|
NU_27  |D|-|-|-|L|-|L| |-|-|-|N|-|-|-| |L|-|-|-|E|-|-| |-|-|-|N|-|-|-|
NU_28  |-|L|-|-|-|D|D| |-|-|-|-|D|-|-| |L|L|-|-|D|-|-| |L|L|N|-|E|-|-|
NU_29  |-|L|-|L|N|-|-| |-|E|D|N|-|D|D| |D|-|D|L|-|-|-| |N|N|N|N|-|-|-|
NU_30  |-|D|-|E|L|-|-| |E|E|-|D|L|-|-| |-|-|-|-|-|L|L| |-|D|-|-|L|-|-|
NU_31  |-|-|N|-|-|-|-| |N|-|L|-|E|-|-| |E|-|N|N|-|N|N| |-|L|N|-|E|-|-|
NU_32  |N|N|N|-|E|L|L| |N|-|E|L|L|-|-| |D|D|E|D|L|-|-| |E|E|L|L|-|L|N|
NU_33  |N|-|D|D|D|N|N| |-|E|D|E|D|-|-| |N|N|N|N|N|-|-| |E|E|N|N|-|D|D|
NU_34  |D|-|-|-|L|-|-| |L|-|-|-|-|E|E| |-|-|-|N|-|-|-| |D|-|D|-|L|-|-|
NU_35  |-|-|N|-|D|-|-| |E|E|-|-|E|-|-| |E|D|D|E|E|D|L| |-|-|E|E|D|-|-|
NU_36  |E|D|-|-|-|-|-| |-|L|L|-|-|E|D| |L|-|N|-|-|-|-| |-|E|D|-|D|-|-|
NU_37  |-|-|-|N|-|L|N| |N|-|N|-|-|-|-| |-|N|N|-|D|-|-| |N|-|E|-|E|-|-|
NU_38  |L|L|L|-|D|D|E| |L|N|-|N|N|-|-| |E|E|D|D|L|-|-| |L|N|N|-|D|D|L|
NU_39  |-|D|D|-|-|L|N| |-|N|-|E|E|-|-| |N|-|L|L|-|D|E| |-|-|D|L|N|-|-|
CT_40  |-|-|N|-|E|-|-| |-|-|N|-|-|-|-| |-|-|-|N|-|N|-| |-|D|-|L|-|-|-|
CT_41  |-|-|L|-|-|-|-| |-|-|-|E|D|N|-| |E|-|E|-|-|-|-| |-|E|-|-|-|-|-|
CT_42  |D|D|-|L|L|L|L| |L|-|L|L|L|L|L| |-|D|E|L|N|-|-| |N|N|N|N|N|-|-|
CT_43  |-|-|-|L|-|-|-| |N|-|-|-|-|-|-| |N|-|L|-|-|-|-| |-|-|-|E|-|-|-|
CT_44  |-|E|-|D|D|-|-| |-|D|D|D|-|-|-| |N|N|N|N|-|-|-| |-|-|-|D|-|-|-|
CT_45  |-|E|D|-|E|D|D| |L|-|D|-|-|-|-| |D|E|L|-|D|-|-| |D|N|-|-|-|D|E|
CT_46  |-|N|-|D|L|-|-| |N|N|-|-|-|D|D| |-|-|L|N|N|-|-| |-|E|-|-|-|-|-|
CT_47  |E|D|-|L|L|N|N| |N|-|E|L|L|N|N| |-|D|E|E|E|-|-| |E|D|E|E|N|-|-|
CT_48  |E|-|D|D|-|-|-| |-|-|L|-|-|-|-| |D|-|-|E|N|-|-| |-|-|D|-|L|L|L|
CT_49  |E|E|E|E|E|-|-| |D|D|E|L|L|-|-| |E|L|L|-|L|L|L| |L|-|E|E|E|E|E|
CT_50  |L|L|N|-|E|-|-| |E|E|-|N|-|-|-| |E|-|D|-|N|-|-| |D|D|E|L|L|-|-|
CT_51  |L|-|E|-|L|-|-| |D|D|E|-|-|N|N| |-|L|-|L|-|-|-| |-|N|-|-|-|-|-|
CT_52  |D|L|N|-|E|-|-| |D|D|-|-|-|D|E| |L|L|-|-|E|E|N| |-|N|-|-|E|-|-|
CT_53  |L|N|-|-|E|-|-| |D|L|L|N|-|L|L| |-|-|-|-|L|-|-| |L|-|-|-|-|-|-|
CT_54  |N|-|D|D|L|L|L| |-|L|L|N|N|-|-| |D|E|E|D|E|-|-| |D|L|L|N|-|L|N|
CT_55  |L|L|-|-|-|-|-| |D|-|-|N|-|-|-| |-|N|-|-|D|-|-| |-|-|E|D|-|-|-|
CT_56  |-|-|-|-|-|-|D| |-|-|-|N|-|-|-| |-|-|-|-|E|-|-| |-|-|-|N|N|-|-|
CT_57  |-|N|-|L|-|E|E| |D|N|N|-|-|-|-| |-|E|-|N|-|-|-| |-|D|-|N|N|-|-|
CT_58  |-|E|-|E|L|-|-| |D|L|-|-|-|N|N| |-|-|-|-|N|-|-| |-|-|N|N|N|-|-|
CT_59  |L|L|L|-|D|-|-| |D|L|L|-|E|-|-| |-|E|D|N|-|E|E| |L|-|L|-|-|-|-|
CT_60  |-|D|-|L|-|-|-| |L|L|N|-|E|D|E| |-|-|N|-|-|-|-| |E|-|-|N|-|-|-|
CT_61  |D|-|-|E|-|-|-| |-|-|N|-|-|-|-| |E|-|-|N|-|-|-| |-|N|-|N|-|E|-|
CT_62  |N|N|N|N|N|-|-| |E|D|E|D|E|-|-| |D|D|E|E|-|E|L| |L|L|-|D|D|D|L|
CT_63  |D|L|L|N|-|N|N| |-|L|-|L|L|-|-| |-|-|D|D|N|-|-| |E|L|-|L|-|E|D|
CT_64  |N|-|D|N|-|-|-| |L|L|L|L|-|-|-| |-|D|-|-|-|N|N| |-|E|-|-|-|-|-|
CT_65  |D|D|L|N|N|-|-| |E|E|E|E|D|-|-| |N|N|-|E|D|E|D| |N|-|L|L|L|N|N|
CT_66  |-|D|E|E|D|N|N| |-|E|L|-|L|-|-| |-|D|D|D|-|-|-| |-|L|L|-|D|-|-|
CT_67  |-|-|D|D|-|-|-| |-|-|-|-|L|-|E| |-|-|-|L|-|-|-| |-|-|L|-|-|-|-|
CT_68  |-|-|N|-|-|E|E| |-|-|N|-|-|-|-| |D|E|D|D|L|-|-| |N|-|-|-|D|-|-|
CT_69  |-|E|-|-|N|-|-| |E|-|-|-|-|-|-| |N|N|-|L|L|-|-| |-|E|-|E|-|E|E|
CT_70  |N|N|-|L|-|-|-| |-|N|-|D|E|L|L| |N|-|-|E|-|D|D| |-|D|L|L|-|-|-|
CT_71  |D|-|-|N|-|-|-| |-|N|-|-|-|-|-| |L|-|-|-|-|-|D| |L|-|-|-|-|-|-|
CT_72  |-|-|-|-|L|-|-| |-|-|-|-|D|-|D| |-|-|-|-|E|-|-| |L|-|-|-|L|-|-|
CT_73  |D|-|L|-|-|-|-| |-|-|N|-|-|-|-| |-|-|-|L|-|N|-| |-|-|-|-|D|-|-|
CT_74  |-|-|L|-|-|-|E| |-|N|-|-|N|-|-| |L|-|-|-|D|-|-| |-|L|-|-|-|-|-|
CT_75  |E|-|-|-|E|E|D| |E|-|E|L|-|E|N| |-|-|-|D|D|-|-| |D|-|D|D|D|-|-|
CT_76  |N|N|-|E|E|D|E| |-|D|D|D|D|-|-| |L|L|L|L|L|-|-| |D|-|D|E|N|N|N|
CT_77  |E|E|E|D|N|-|-| |E|D|D|E|D|-|-| |E|D|N|N|-|L|N| |N|N|-|E|N|N|N|
CT_78  |N|N|-|D|D|L|L| |N|-|E|D|E|E|D| |-|E|E|E|E|-|-| |E|E|E|D|L|-|-|
CT_79  |-|-|D|-|-|-|-| |-|-|D|-|-|-|-| |-|L|L|-|-|-|-| |-|-|-|L|-|N|-|
TR_80  |D|L|-|-|-|E|E| |E|L|-|E|D|-|-| |L|-|E|D|L|-|-| |-|E|L|-|E|-|-|
TR_81  |E|-|N|-|-|-|-| |-|E|-|-|L|-|-| |-|L|-|N|-|E|E| |E|-|-|D|L|-|-|
TR_82  |-|D|E|-|-|-|-| |N|-|-|-|D|-|-| |-|L|-|L|N|-|-| |D|L|N|-|N|-|-|
TR_83  |E|E|D|-|D|L|L| |-|D|E|E|L|-|-| |-|E|E|D|-|-|-| |-|N|-|L|-|-|-|
TR_84  |-|L|L|-|D|N|N| |-|N|-|E|E|-|-| |-|-|N|-|-|D|D| |-|D|D|E|D|-|-|
TR_85  |-|N|-|-|-|-|-| |N|-|-|-|-|-|D| |-|-|N|-|-|-|-| |-|-|-|E|-|-|-|
TR_86  |-|D|-|-|N|-|-| |E|-|-|-|N|-|-| |E|-|N|N|-|N|N| |-|-|-|E|N|-|-|
TR_87  |-|-|D|E|-|-|-| |-|E|D|D|-|D|L| |-|-|L|-|L|N|N| |-|D|L|L|N|-|-|
TR_88  |D|E|E|L|L|-|-| |-|N|-|L|-|-|-| |-|D|-|N|N|-|-| |N|N|N|-|-|D|E|
TR_89  |L|N|-|D|E|-|-| |D|N|N|-|E|E|E| |D|N|-|E|D|E|E| |E|-|D|D|D|E|L|
TR_90  |-|-|-|-|-|-|-| |L|N|-|E|N|-|-| |E|E|E|-|L|-|-| |L|-|N|-|L|-|-|
TR_91  |N|-|E|E|D|D|D| |-|D|N|N|N|-|-| |E|E|D|D|E|-|-| |D|N|-|D|D|E|E|
TR_92  |-|-|-|-|-|L|-| |-|-|L|-|L|-|-| |-|-|N|-|-|-|-| |-|L|-|-|-|-|-|
TR_93  |N|-|D|N|-|-|-| |-|-|N|-|D|-|-| |N|-|-|-|D|-|-| |D|L|-|E|L|-|-|
TR_94  |N|-|E|L|N|-|-| |-|D|-|-|D|-|-| |-|N|-|D|-|-|-| |-|N|N|N|-|-|-|
TR_95  |E|L|-|-|-|-|-| |L|-|-|-|-|-|-| |-|N|-|-|-|-|-| |-|-|L|-|-|-|-|
TR_96  |N|-|N|N|-|-|-| |-|N|-|L|-|E|D| |N|-|E|E|D|-|-| |-|D|-|E|-|N|N|
TR_97  |L|N|-|E|L|L|L| |L|-|E|E|E|L|N| |-|D|D|E|E|-|-| |E|E|E|L|L|-|-|
TR_98  |-|E|-|L|N|-|-| |-|E|D|N|N|-|-| |E|L|L|L|-|-|-| |-|D|-|-|E|D|D|
TR_99  |E|E|D|D|D|-|-| |E|-|D|D|E|-|-| |N|-|D|L|N|-|-| |-|E|-|L|-|-|-|
TR_100 |D|D|E|D|E|-|-| |D|D|D|N|N|-|-| |N|N|-|E|E|D|E| |N|-|E|E|E|L|L|
TR_101 |E|E|L|N|N|-|-| |D|E|E|D|E|-|-| |E|E|-|E|L|L|L| |N|-|E|N|N|N|N|
TR_102 |-|-|-|-|L|-|-| |-|D|-|-|-|-|E| |-|-|-|L|-|-|-| |-|-|-|L|-|-|-|
TR_103 |-|-|-|L|-|-|-| |E|L|L|-|E|-|-| |L|L|-|E|-|-|-| |L|L|L|-|-|-|-|
TR_104 |L|N|N|-|E|D|E| |D|L|-|L|L|N|N| |N|-|N|N|N|-|-| |D|E|D|D|E|-|-|
TR_105 |-|L|-|E|E|-|-| |N|N|N|-|D|L|L| |L|L|-|L|-|-|-| |E|-|E|L|-|-|-|
TR_106 |D|-|E|E|E|D|N| |-|L|L|L|L|-|-| |D|D|E|D|E|-|-| |E|-|E|D|D|D|E|
TR_107 |D|D|N|N|-|E|L| |L|-|D|-|-|-|-| |D|D|L|-|D|-|-| |N|-|L|N|-|-|-|
TR_108 |-|-|L|-|-|-|-| |N|-|-|D|-|-|-| |-|-|L|-|-|-|-| |N|-|-|-|-|-|-|
TR_109 |L|N|-|D|D|-|-| |N|-|E|-|-|-|-| |D|-|L|L|-|D|L| |L|L|N|N|-|-|-|


Hard constraint violations
--------------------------

Minimal coverage constraints: 0
Required skill constraints: 0
Illegal shift type succession constraints: 0
Single assignment per day: 0


Cost per constraint type
------------------------

Total assignment constraints: 880
Consecutive constraints: 43005
Non working days constraints: 16320
Preferences: 110
Max working weekend: 30
Complete weekends: 0
Optimal coverage constraints: 0

------------------------

Total cost: 60345
